 200 33 
 61 37 58 83 80 50 58 52 18 99 93 73 
 89 72 62 33 88 4 94 44 11 96 86 75 
 59 31 93 58 97 44 47 3 10 
 26 
 1 2 3 5 7 8 10 11 12 14 15 18 
 19 20 22 23 24 25 26 27 28 29 30 31 
 32 33 
 20 
 1 2 4 6 8 10 11 12 13 14 15 16 
 17 21 22 24 25 27 28 29 
 25 
 1 2 3 4 7 8 9 10 11 14 15 16 
 17 18 19 20 21 23 25 26 27 29 30 32 
 33 
 31 
 2 3 4 5 6 7 8 9 10 11 12 13 
 14 15 16 17 18 19 20 21 22 23 24 25 
 26 27 28 29 30 32 33 
 12 
 1 3 5 16 18 19 20 22 23 28 29 30 
 5 
 5 7 10 24 30 
 16 
 4 8 11 12 13 14 15 17 18 19 22 28 
 29 30 32 33 
 5 
 13 18 19 28 32 
 25 
 1 3 4 5 6 7 10 12 14 16 17 18 
 19 20 21 22 24 25 26 27 28 29 30 31 
 32 
 6 
 4 10 16 26 27 33 
 11 
 2 4 10 15 17 20 23 25 27 31 32 
 11 
 3 10 11 13 16 21 23 24 25 27 28 
 18 
 1 5 6 7 9 13 14 16 17 18 20 21 
 22 24 28 29 30 32 
 33 
 1 2 3 4 5 6 7 8 9 10 11 12 
 13 14 15 16 17 18 19 20 21 22 23 24 
 25 26 27 28 29 30 31 32 33 
 27 
 1 2 3 4 5 6 7 8 9 10 11 12 
 13 14 16 17 18 22 23 24 25 26 28 30 
 31 32 33 
 9 
 5 6 7 10 13 14 18 21 26 
 16 
 1 2 3 4 5 6 11 12 15 17 20 21 
 24 26 30 32 
 7 
 9 12 14 15 18 25 27 
 14 
 1 2 5 7 8 9 11 12 17 22 24 30 
 32 33 
 5 
 7 15 27 29 31 
 7 
 7 11 22 23 29 30 33 
 33 
 1 2 3 4 5 6 7 8 9 10 11 12 
 13 14 15 16 17 18 19 20 21 22 23 24 
 25 26 27 28 29 30 31 32 33 
 2 
 3 9 
 29 
 1 3 4 5 7 8 10 11 12 13 14 15 
 17 18 19 20 21 22 23 24 25 26 27 28 
 29 30 31 32 33 
 22 
 3 4 5 6 7 9 11 12 13 14 15 16 
 17 18 19 20 22 25 27 30 31 32 
 15 
 1 3 4 5 6 13 16 20 21 22 23 26 
 27 29 30 
 19 
 1 3 4 7 8 10 12 13 14 17 20 22 
 23 24 25 26 27 31 32 
 25 
 1 3 6 7 8 10 11 12 13 14 15 16 
 17 18 20 21 23 24 27 28 29 30 31 32 
 33 
 3 
 7 11 33 
 15 
 1 5 6 8 9 10 13 16 20 22 24 25 
 28 29 30 
 24 
 2 3 5 6 8 9 10 11 12 14 15 16 
 17 19 20 22 23 24 25 26 27 28 30 31 
 15 
 1 4 8 9 10 11 12 13 14 17 22 23 
 26 29 31 
 18 
 1 2 5 6 9 10 13 15 16 17 22 23 
 26 28 29 30 31 33 
 6 
 1 4 8 9 15 25 
 24 
 1 2 3 4 5 6 8 10 11 12 13 14 
 15 16 18 20 21 23 24 26 29 30 31 33 
 7 
 1 2 6 7 15 26 27 
 11 
 1 2 6 8 9 11 14 15 22 26 31 
 16 
 4 5 6 8 9 11 12 14 15 19 22 24 
 25 27 28 33 
 3 
 3 20 26 
 15 
 2 3 4 7 8 9 10 11 12 20 21 24 
 26 31 33 
 30 
 1 2 3 4 6 7 8 9 10 11 12 13 
 14 15 16 17 18 19 20 21 22 23 24 25 
 26 28 29 30 31 32 
 13 
 3 6 7 9 10 13 14 16 24 28 30 31 
 32 
 16 
 1 5 7 8 9 10 11 14 17 19 21 24 
 26 28 32 33 
 32 
 1 2 3 4 5 6 7 8 9 10 11 12 
 13 14 16 17 18 19 20 21 22 23 24 25 
 26 27 28 29 30 31 32 33 
 13 
 3 6 7 13 14 24 27 28 29 30 31 32 
 33 
 18 
 1 2 3 4 7 11 14 16 18 19 25 27 
 28 29 30 31 32 33 
 10 
 8 9 13 16 19 20 22 26 27 29 
 33 
 1 2 3 4 5 6 7 8 9 10 11 12 
 13 14 15 16 17 18 19 20 21 22 23 24 
 25 26 27 28 29 30 31 32 33 
 26 
 1 2 3 4 6 8 9 10 11 12 13 16 
 17 18 20 21 22 23 25 26 27 28 30 31 
 32 33 
 29 
 2 3 4 5 6 7 9 10 11 13 14 15 
 16 17 18 19 20 21 22 23 24 25 26 27 
 28 29 30 31 33 
 21 
 1 2 4 6 7 9 10 11 12 16 18 20 
 21 23 24 27 28 29 30 31 33 
 6 
 1 13 14 25 30 33 
 14 
 1 4 5 7 11 13 15 18 20 21 24 26 
 29 31 
 31 
 2 3 4 5 6 7 8 10 11 12 13 14 
 15 16 17 18 19 20 21 22 23 24 25 26 
 27 28 29 30 31 32 33 
 18 
 2 3 5 7 10 12 13 14 15 16 18 21 
 23 25 26 28 29 32 
 19 
 1 2 3 4 6 9 10 11 12 14 17 19 
 21 23 25 28 31 32 33 
 10 
 4 5 10 14 15 20 27 28 29 30 
 22 
 1 8 9 10 11 12 14 16 17 18 19 21 
 23 24 25 27 28 29 30 31 32 33 
 15 
 3 4 10 11 12 14 16 17 20 21 24 25 
 26 30 32 
 33 
 1 2 3 4 5 6 7 8 9 10 11 12 
 13 14 15 16 17 18 19 20 21 22 23 24 
 25 26 27 28 29 30 31 32 33 
 32 
 1 2 3 4 5 6 8 9 10 11 12 13 
 14 15 16 17 18 19 20 21 22 23 24 25 
 26 27 28 29 30 31 32 33 
 16 
 3 4 7 9 10 11 12 14 15 16 19 21 
 22 24 31 32 
 9 
 2 8 10 16 21 28 29 30 33 
 17 
 1 3 4 7 8 13 14 16 17 19 21 22 
 23 25 28 31 33 
 21 
 1 2 3 5 7 8 9 12 13 14 15 17 
 19 21 25 26 27 28 31 32 33 
 23 
 1 2 5 6 7 8 9 10 11 12 15 16 
 18 19 20 21 22 23 25 28 30 31 32 
 8 
 7 9 10 21 22 29 30 33 
 3 
 3 7 32 
 29 
 1 2 3 4 5 6 7 8 9 10 11 12 
 13 15 17 18 19 20 21 24 25 26 27 28 
 29 30 31 32 33 
 18 
 3 4 5 7 9 10 11 12 15 17 18 22 
 24 26 28 29 31 32 
 15 
 6 7 9 11 13 15 16 17 18 21 23 24 
 26 30 32 
 4 
 6 7 24 33 
 27 
 1 2 3 4 5 6 8 10 11 13 14 15 
 16 17 19 20 21 22 23 24 26 27 28 29 
 30 31 33 
 24 
 1 2 3 5 7 8 10 11 13 14 15 17 
 18 19 20 21 22 23 25 26 30 31 32 33 
 8 
 1 5 6 16 19 23 24 27 
 16 
 1 7 8 9 12 13 15 16 17 18 19 21 
 24 25 32 33 
 24 
 2 3 5 6 7 9 10 11 12 13 14 15 
 16 17 18 19 21 24 27 28 30 31 32 33 
 11 
 1 5 15 18 20 22 25 26 28 30 31 
 13 
 1 2 4 5 10 13 15 19 20 25 26 29 
 30 
 30 
 1 4 5 6 7 8 9 10 11 12 13 14 
 15 17 18 19 20 21 22 23 24 25 26 27 
 28 29 30 31 32 33 
 3 
 15 18 32 
 7 
 6 15 19 26 27 30 33 
 13 
 5 6 9 10 13 14 15 24 25 26 27 29 
 30 
 17 
 2 3 4 5 6 7 10 11 14 16 21 24 
 26 27 29 31 33 
 30 
 1 2 3 4 5 6 7 8 9 10 11 12 
 13 14 15 16 17 18 19 20 21 22 23 24 
 25 27 28 29 31 33 
 13 
 1 2 7 13 20 23 24 25 26 27 28 31 
 33 
 28 
 1 2 4 5 6 7 8 9 10 12 13 14 
 16 17 18 19 20 21 23 24 25 26 27 28 
 29 30 31 33 
 16 
 1 3 4 5 6 7 8 12 13 14 18 22 
 23 24 27 33 
 8 
 2 3 9 26 27 29 32 33 
 18 
 1 2 4 5 7 9 10 12 21 23 24 25 
 26 28 30 31 32 33 
 16 
 5 9 12 13 14 17 19 21 22 23 25 26 
 27 29 30 32 
 5 
 12 17 20 28 31 
 8 
 3 5 10 17 21 22 28 32 
 23 
 1 3 5 7 9 10 11 13 14 15 16 17 
 18 19 20 22 25 26 27 28 30 32 33 
 14 
 2 11 12 14 15 20 21 22 24 26 28 31 
 32 33 
 12 
 5 8 11 12 14 15 18 20 21 24 28 31 
 27 
 1 2 3 4 6 7 8 10 13 14 15 16 
 17 18 19 20 21 22 23 25 26 27 29 30 
 31 32 33 
 6 
 5 9 13 14 20 26 
 32 
 1 2 3 4 5 6 7 8 9 10 11 12 
 13 14 15 16 17 18 19 20 21 22 23 24 
 26 27 28 29 30 31 32 33 
 5 
 13 16 22 24 25 
 26 
 1 2 3 4 6 7 10 11 12 13 15 16 
 17 18 19 20 22 23 24 25 27 28 29 31 
 32 33 
 25 
 1 4 5 6 7 8 9 11 12 14 15 16 
 17 18 19 20 21 22 23 24 25 27 29 31 
 33 
 11 
 2 5 9 10 15 16 20 23 25 28 33 
 14 
 4 7 9 10 11 13 16 17 20 24 25 27 
 28 31 
 28 
 1 3 4 5 7 8 10 11 12 13 14 15 
 16 17 18 20 21 22 23 24 25 26 27 28 
 29 30 31 33 
 26 
 1 2 3 4 5 6 7 8 10 11 12 13 
 14 16 17 18 21 22 23 26 27 29 30 31 
 32 33 
 7 
 2 8 12 20 25 30 32 
 11 
 8 15 18 20 22 23 24 25 27 31 32 
 33 
 1 2 3 4 5 6 7 8 9 10 11 12 
 13 14 15 16 17 18 19 20 21 22 23 24 
 25 26 27 28 29 30 31 32 33 
 2 
 16 19 
 33 
 1 2 3 4 5 6 7 8 9 10 11 12 
 13 14 15 16 17 18 19 20 21 22 23 24 
 25 26 27 28 29 30 31 32 33 
 22 
 2 3 5 10 11 12 13 15 16 18 19 20 
 21 22 23 24 25 26 27 31 32 33 
 26 
 1 2 4 5 6 7 8 9 10 11 12 13 
 14 15 16 18 19 20 22 23 25 26 27 28 
 30 31 
 3 
 19 20 26 
 28 
 1 2 3 4 6 8 9 10 11 12 13 14 
 15 17 18 19 20 21 22 23 24 25 26 27 
 28 30 31 32 
 12 
 3 5 8 10 15 18 21 22 24 28 29 32 
 3 
 7 16 25 
 6 
 2 12 19 23 29 31 
 32 
 1 2 3 4 5 6 7 8 9 10 11 12 
 13 15 16 17 18 19 20 21 22 23 24 25 
 26 27 28 29 30 31 32 33 
 23 
 2 5 7 8 9 11 12 13 15 17 18 20 
 21 22 23 24 25 27 28 29 30 31 33 
 30 
 1 2 3 4 5 6 7 8 9 10 12 13 
 14 15 17 18 19 20 21 22 23 24 25 26 
 27 28 29 30 31 32 
 20 
 2 3 4 5 6 9 10 11 12 13 14 17 
 18 21 23 24 27 29 32 33 
 33 
 1 2 3 4 5 6 7 8 9 10 11 12 
 13 14 15 16 17 18 19 20 21 22 23 24 
 25 26 27 28 29 30 31 32 33 
 14 
 1 2 3 4 5 6 8 9 17 21 22 24 
 26 29 
 9 
 5 7 11 18 19 20 22 29 32 
 8 
 2 7 11 15 16 23 24 33 
 8 
 7 18 19 23 24 28 29 31 
 15 
 1 3 5 6 9 11 12 13 14 15 19 24 
 25 28 32 
 29 
 1 2 3 5 6 7 8 9 10 11 12 14 
 15 16 17 18 19 20 21 22 23 24 26 27 
 28 29 30 32 33 
 2 
 13 25 
 15 
 2 3 4 5 6 8 11 13 15 16 19 20 
 22 23 31 
 9 
 1 2 10 16 17 25 26 27 31 
 3 
 8 16 33 
 31 
 1 2 3 4 5 8 9 10 11 12 13 14 
 15 16 17 18 19 20 21 22 23 24 25 26 
 27 28 29 30 31 32 33 
 11 
 2 5 12 14 17 18 24 25 27 28 31 
 11 
 3 8 11 16 17 18 20 23 25 29 30 
 22 
 1 3 4 5 7 9 12 14 15 18 19 20 
 21 22 23 24 25 26 27 28 30 32 
 25 
 1 3 4 6 7 8 9 10 11 12 14 15 
 16 18 19 20 23 24 26 27 28 29 30 31 
 32 
 32 
 1 2 3 4 5 6 7 8 9 10 11 12 
 13 14 16 17 18 19 20 21 22 23 24 25 
 26 27 28 29 30 31 32 33 
 6 
 2 7 11 12 25 26 
 27 
 1 2 3 4 5 6 7 8 10 12 13 14 
 15 16 18 19 20 21 22 23 25 26 28 29 
 30 32 33 
 4 
 14 15 27 31 
 31 
 1 3 4 5 6 7 8 9 10 11 12 13 
 14 15 16 17 18 19 20 21 22 23 24 25 
 26 27 28 30 31 32 33 
 8 
 1 7 12 15 18 23 27 29 
 21 
 1 2 6 8 10 11 13 14 17 18 20 22 
 23 24 26 27 28 29 30 31 32 
 15 
 1 5 12 13 14 15 16 17 18 19 26 28 
 30 31 32 
 11 
 6 14 15 16 18 19 21 22 27 28 29 
 6 
 4 12 16 23 25 26 
 2 
 4 19 
 31 
 1 2 3 4 6 7 8 9 10 11 12 13 
 14 15 16 17 18 19 20 21 22 23 25 26 
 27 28 29 30 31 32 33 
 25 
 1 2 3 4 5 7 8 9 10 11 12 13 
 14 15 16 17 18 19 21 22 23 24 25 26 
 33 
 5 
 14 18 21 25 32 
 29 
 1 2 4 6 7 8 9 10 12 13 15 16 
 17 18 19 20 21 22 23 24 25 26 27 28 
 29 30 31 32 33 
 3 
 5 6 21 
 32 
 1 3 4 5 6 7 8 9 10 11 12 13 
 14 15 16 17 18 19 20 21 22 23 24 25 
 26 27 28 29 30 31 32 33 
 26 
 2 3 4 5 6 8 9 10 12 13 14 15 
 16 18 20 21 22 23 25 27 28 29 30 31 
 32 33 
 5 
 11 16 22 23 33 
 21 
 1 2 3 4 6 9 11 12 13 15 16 18 
 19 20 21 23 24 27 28 29 32 
 28 
 1 2 3 4 6 7 8 9 10 11 12 14 
 15 16 17 18 19 21 22 23 24 25 26 27 
 28 29 30 31 
 19 
 3 4 5 7 9 12 15 16 17 18 19 20 
 21 23 29 30 31 32 33 
 25 
 1 2 3 4 5 7 9 10 11 12 14 15 
 16 17 18 19 22 25 26 28 29 30 31 32 
 33 
 22 
 1 3 4 5 6 11 15 16 17 18 19 20 
 21 22 23 24 27 28 29 30 31 33 
 12 
 2 4 5 6 14 15 19 21 26 29 30 31 
 5 
 12 17 18 22 31 
 24 
 1 2 4 5 7 8 10 12 13 14 15 17 
 19 20 21 22 23 24 25 26 28 29 32 33 
 11 
 2 4 5 11 19 21 23 25 30 31 32 
 8 
 3 11 13 15 20 26 29 31 
 6 
 2 10 14 23 25 27 
 3 
 15 22 29 
 23 
 2 3 4 6 7 8 9 10 11 13 14 16 
 18 19 20 21 24 25 27 29 30 31 33 
 13 
 1 5 7 9 10 11 16 17 24 26 28 30 
 32 
 30 
 1 3 4 5 6 7 8 9 10 11 12 13 
 14 15 16 17 18 19 20 21 22 23 24 25 
 26 28 29 30 32 33 
 3 
 8 13 17 
 28 
 1 2 3 4 5 6 7 8 9 10 11 12 
 13 14 15 16 17 18 20 21 23 24 26 27 
 28 29 30 33 
 31 
 1 2 3 4 5 6 7 8 9 10 11 12 
 13 14 16 17 18 19 20 21 22 23 24 26 
 27 28 29 30 31 32 33 
 8 
 2 7 15 16 17 29 31 32 
 29 
 1 3 4 5 6 7 8 9 10 11 13 14 
 15 16 17 18 19 20 22 24 25 26 27 28 
 29 30 31 32 33 
 32 
 1 2 3 4 5 6 7 8 9 10 11 12 
 13 14 15 16 18 19 20 21 22 23 24 25 
 26 27 28 29 30 31 32 33 
 20 
 1 2 4 6 7 10 11 12 14 15 17 22 
 23 24 25 26 27 28 32 33 
 6 
 1 7 8 10 14 28 
 28 
 1 2 3 4 6 7 8 9 10 11 13 14 
 15 16 17 18 19 20 22 23 24 25 27 28 
 29 30 31 32 
 24 
 2 3 4 5 6 7 8 9 10 11 12 13 
 14 16 17 18 19 21 22 23 26 27 30 32 
 33 
 1 2 3 4 5 6 7 8 9 10 11 12 
 13 14 15 16 17 18 19 20 21 22 23 24 
 25 26 27 28 29 30 31 32 33 
 32 
 1 2 3 4 6 7 8 9 10 11 12 13 
 14 15 16 17 18 19 20 21 22 23 24 25 
 26 27 28 29 30 31 32 33 
 8 
 4 6 8 9 21 22 24 30 
 23 
 1 2 3 4 5 6 7 9 10 12 14 15 
 16 17 18 19 21 24 25 26 28 29 33 
 8 
 1 2 6 7 25 26 29 33 
 28 
 1 2 3 4 5 6 7 8 9 11 12 13 
 14 15 17 19 20 21 22 24 26 27 28 29 
 30 31 32 33 
 13 
 4 5 6 7 10 11 12 15 17 25 27 31 
 33 
 30 
 1 2 3 5 6 7 8 9 10 11 12 13 
 14 15 16 17 18 19 21 22 23 24 25 26 
 27 29 30 31 32 33 
 11 
 3 6 9 11 14 15 18 23 25 27 28 
 29 
 1 2 3 4 6 7 8 9 10 11 12 13 
 14 15 16 17 18 19 20 22 23 24 25 26 
 27 29 31 32 33 
 25 
 2 3 4 5 6 7 10 11 13 14 16 17 
 18 20 21 22 23 24 25 26 28 29 31 32 
 33 
 19 
 1 4 6 8 10 12 13 14 15 19 20 21 
 22 23 24 25 26 28 33 
 30 
 1 2 3 4 6 8 9 10 11 12 13 14 
 15 17 18 19 20 21 22 23 24 25 26 27 
 28 29 30 31 32 33 
 30 
 1 2 4 6 7 9 10 11 12 13 14 15 
 16 17 18 19 20 21 22 23 24 25 26 27 
 28 29 30 31 32 33 
 28 
 1 2 3 4 5 6 7 8 11 12 13 14 
 16 17 18 19 20 21 22 23 25 26 28 29 
 30 31 32 33 
 13 
 2 5 6 7 8 10 12 14 18 25 27 28 
 30 
 28 
 1 2 3 4 5 6 8 9 10 11 12 13 
 15 16 17 18 21 22 23 24 25 27 28 29 
 30 31 32 33 
 8 
 4 8 14 15 18 22 27 30 
 